{"problem": { "name": "None", "mustbe": "<1000000.000000" },
 "variables": {
 "Z1": [ "f", "t" ],
"Z2": [ "f", "t" ],
"Z3": [ "f", "t" ],
"Z4": [ "f", "t" ],
"Z5": [ "f", "t" ],
"Z6": [ "f", "t" ],
"Z7": [ "f", "t" ],
"Z8": [ "f", "t" ],
"Z9": [ "f", "t" ],
"Z10": [ "f", "t" ],
"Z11": [ "f", "t" ],
"Z12": [ "f", "t" ],
"Z13": [ "f", "t" ],
"Z14": [ "f", "t" ],
"Z15": [ "f", "t" ],
"Z16": [ "f", "t" ],
"Z17": [ "f", "t" ],
"Z18": [ "f", "t" ],
"Z19": [ "f", "t" ],
"Z20": [ "f", "t" ],
"Z21": [ "f", "t" ],
"Z22": [ "f", "t" ],
"Z23": [ "f", "t" ],
"Z24": [ "f", "t" ],
"Z25": [ "f", "t" ],
"Z26": [ "f", "t" ],
"Z27": [ "f", "t" ],
"Z28": [ "f", "t" ],
"Z29": [ "f", "t" ],
"Z30": [ "f", "t" ],
"Z31": [ "f", "t" ],
"Z32": [ "f", "t" ],
"Z33": [ "f", "t" ],
"Z34": [ "f", "t" ],
"Z35": [ "f", "t" ],
"Z36": [ "f", "t" ],
"Z37": [ "f", "t" ],
"Z38": [ "f", "t" ],
"Z39": [ "f", "t" ],
"Z40": [ "f", "t" ],
"Z41": [ "f", "t" ],
"Z42": [ "f", "t" ],
"Z43": [ "f", "t" ],
"Z44": [ "f", "t" ],
"Z45": [ "f", "t" ],
},
"functions": {
"P_Z1": {
 "scope": [ "Z23",  "Z41", "Z1" ],
 "costs": [
3.044522, 0.048790,
0.810930, 0.587787,
0.310155, 1.321756,
0.262364, 1.466337,
]}
"P_Z2": {
 "scope": [ "Z3",  "Z17", "Z2" ],
 "costs": [
0.887303, 0.530628,
0.788457, 0.606136,
0.223144, 1.609438,
1.658228, 0.211309,
]}
"P_Z3": {
 "scope": [ "Z41", "Z3" ],
 "costs": [
0.485508, 0.955511,
1.148623, 0.381368,
]}
"P_Z4": {
 "scope": [ "Z5", "Z4" ],
 "costs": [
0.243622, 1.531476,
1.563976, 0.234840,
]}
"P_Z5": {
 "scope": [ "Z3",  "Z18", "Z5" ],
 "costs": [
0.510826, 0.916291,
3.091042, 0.046520,
0.382992, 1.145132,
0.559616, 0.847298,
]}
"P_Z6": {
 "scope": [ "Z17", "Z6" ],
 "costs": [
0.444686, 1.024504,
1.074515, 0.417735,
]}
"P_Z7": {
 "scope": [ "Z17",  "Z25", "Z7" ],
 "costs": [
0.111226, 2.251292,
1.609438, 0.223144,
0.693147, 0.693147,
0.847298, 0.559616,
]}
"P_Z8": {
 "scope": [ "Z6",  "Z9", "Z8" ],
 "costs": [
0.133531, 2.079442,
0.693147, 0.693147,
0.650588, 0.737599,
1.658228, 0.211309,
]}
"P_Z9": {
 "scope": [ "Z3", "Z9" ],
 "costs": [
0.392042, 1.126011,
1.363305, 0.295464,
]}
"P_Z10": {
 "scope": [ "Z2",  "Z28", "Z10" ],
 "costs": [
0.510826, 0.916291,
0.546544, 0.864997,
0.530628, 0.887303,
2.484907, 0.087011,
]}
"P_Z11": {
 "scope": [ "Z10",  "Z37", "Z11" ],
 "costs": [
0.223144, 1.609438,
0.510826, 0.916291,
0.310155, 1.321756,
3.218876, 0.040822,
]}
"P_Z12": {
 "scope": [ "Z10", "Z12" ],
 "costs": [
0.419854, 1.070441,
1.167605, 0.372675,
]}
"P_Z13": {
 "scope": [ "Z12",  "Z21", "Z13" ],
 "costs": [
-0.000000, 1000000.000000,
1.386294, 0.287682,
0.693147, 0.693147,
1.526056, 0.245122,
]}
"P_Z14": {
 "scope": [ "Z15", "Z14" ],
 "costs": [
0.435318, 1.041454,
1.343735, 0.302281,
]}
"P_Z15": {
 "scope": [ "Z20",  "Z33", "Z15" ],
 "costs": [
0.510826, 0.916291,
0.310155, 1.321756,
3.044522, 0.048790,
0.802346, 0.594707,
]}
"P_Z16": {
 "scope": [ "Z17", "Z16" ],
 "costs": [
0.331357, 1.265666,
1.634131, 0.217065,
]}
"P_Z17": {
 "scope": [ "Z19",  "Z41", "Z17" ],
 "costs": [
0.635989, 0.753772,
0.893818, 0.526093,
-0.000000, 1000000.000000,
1.252763, 0.336472,
]}
"P_Z18": { "scope": ["Z18"], costs: [0.771109, 0.620827 ]},
"P_Z19": {
 "scope": [ "Z18", "Z19" ],
 "costs": [
0.315081, 1.308333,
2.662588, 0.072321,
]}
"P_Z20": {
 "scope": [ "Z10",  "Z37", "Z20" ],
 "costs": [
0.223144, 1.609438,
2.302585, 0.105361,
0.762140, 0.628609,
0.820981, 0.579818,
]}
"P_Z21": {
 "scope": [ "Z20",  "Z29", "Z21" ],
 "costs": [
0.105361, 2.302585,
0.798508, 0.597837,
0.470004, 0.980829,
2.484907, 0.087011,
]}
"P_Z22": {
 "scope": [ "Z20",  "Z45", "Z22" ],
 "costs": [
0.538997, 0.875469,
2.442347, 0.090972,
0.233615, 1.568616,
0.741937, 0.646627,
]}
"P_Z23": {
 "scope": [ "Z6",  "Z29",  "Z36", "Z23" ],
 "costs": [
0.251314, 1.504077,
0.405465, 1.098612,
1000000.000000, -0.000000,
1.203973, 0.356675,
1.386294, 0.287682,
0.105361, 2.302585,
0.318454, 1.299283,
1000000.000000, -0.000000,
]}
"P_Z24": {
 "scope": [ "Z14",  "Z19", "Z24" ],
 "costs": [
0.485508, 0.955511,
2.833213, 0.060625,
0.211309, 1.658228,
0.802346, 0.594707,
]}
"P_Z25": {
 "scope": [ "Z10",  "Z24", "Z25" ],
 "costs": [
0.826679, 0.575364,
0.139762, 2.036882,
2.944439, 0.054067,
0.693147, 0.693147,
]}
"P_Z26": {
 "scope": [ "Z16", "Z26" ],
 "costs": [
0.364643, 1.185624,
1.076139, 0.416894,
]}
"P_Z27": {
 "scope": [ "Z26",  "Z44", "Z27" ],
 "costs": [
-0.000000, 1000000.000000,
1000000.000000, -0.000000,
0.435318, 1.041454,
1.427116, 0.274437,
]}
"P_Z28": {
 "scope": [ "Z26",  "Z29", "Z28" ],
 "costs": [
0.257829, 1.481605,
0.405465, 1.098612,
0.693147, 0.693147,
3.091042, 0.046520,
]}
"P_Z29": {
 "scope": [ "Z19",  "Z27", "Z29" ],
 "costs": [
-0.000000, 1000000.000000,
0.938270, 0.496437,
0.773190, 0.619039,
1.216395, 0.351398,
]}
"P_Z30": {
 "scope": [ "Z36", "Z30" ],
 "costs": [
0.464306, 0.990399,
1.167605, 0.372675,
]}
"P_Z31": {
 "scope": [ "Z30", "Z31" ],
 "costs": [
0.287682, 1.386294,
1.299283, 0.318454,
]}
"P_Z32": {
 "scope": [ "Z34", "Z32" ],
 "costs": [
0.510826, 0.916291,
1.386294, 0.287682,
]}
"P_Z33": {
 "scope": [ "Z13",  "Z28",  "Z31", "Z33" ],
 "costs": [
0.451985, 1.011601,
1.386294, 0.287682,
-0.000000, 1000000.000000,
1.011601, 0.451985,
1000000.000000, -0.000000,
1.386294, 0.287682,
0.693147, 0.693147,
1000000.000000, -0.000000,
]}
"P_Z34": {
 "scope": [ "Z3",  "Z33", "Z34" ],
 "costs": [
0.379490, 1.152680,
0.200671, 1.704748,
2.197225, 0.117783,
0.693147, 0.693147,
]}
"P_Z35": {
 "scope": [ "Z34", "Z35" ],
 "costs": [
0.321584, 1.290984,
1.897120, 0.162519,
]}
"P_Z36": {
 "scope": [ "Z18", "Z36" ],
 "costs": [
0.432864, 1.045969,
1.363305, 0.295464,
]}
"P_Z37": {
 "scope": [ "Z9",  "Z19", "Z37" ],
 "costs": [
-0.000000, 1000000.000000,
0.405465, 1.098612,
0.847298, 0.559616,
1.575536, 0.231802,
]}
"P_Z38": {
 "scope": [ "Z10",  "Z34",  "Z44", "Z38" ],
 "costs": [
-0.000000, 1000000.000000,
0.575364, 0.826679,
0.223144, 1.609438,
1000000.000000, -0.000000,
1.609438, 0.223144,
1.791759, 0.182322,
0.287682, 1.386294,
1.540445, 0.241162,
]}
"P_Z39": {
 "scope": [ "Z38", "Z39" ],
 "costs": [
0.251314, 1.504077,
1.299283, 0.318454,
]}
"P_Z40": {
 "scope": [ "Z1",  "Z33", "Z40" ],
 "costs": [
1000000.000000, -0.000000,
0.257829, 1.481605,
0.757686, 0.632523,
0.810930, 0.587787,
]}
"P_Z41": {
 "scope": [ "Z31", "Z41" ],
 "costs": [
0.262364, 1.466337,
1.516347, 0.247836,
]}
"P_Z42": {
 "scope": [ "Z16", "Z42" ],
 "costs": [
0.287682, 1.386294,
1.299283, 0.318454,
]}
"P_Z43": {
 "scope": [ "Z30",  "Z45", "Z43" ],
 "costs": [
-0.000000, 1000000.000000,
0.459532, 0.998529,
1.609438, 0.223144,
2.120264, 0.127833,
]}
"P_Z44": {
 "scope": [ "Z18",  "Z42", "Z44" ],
 "costs": [
0.587787, 0.810930,
0.048790, 3.044522,
2.251292, 0.111226,
1.299283, 0.318454,
]}
"P_Z45": {
 "scope": [ "Z27",  "Z44", "Z45" ],
 "costs": [
-0.000000, 1000000.000000,
0.762140, 0.628609,
1.446919, 0.268264,
3.218876, 0.040822,
]}

}